p edge 80 110
n 0
n 1
n 2
n 3
n 4
n 5
n 6
n 7
n 8
n 9
n 10
n 11
n 12
n 13
n 14
n 15
n 16
n 17
n 18
n 19
n 20
n 21
n 22
n 23
n 24
n 25
n 26
n 27
n 28
n 29
n 30
n 31
n 32
n 33
n 34
n 35
n 36
n 37
n 38
n 39
n 40
n 41
n 42
n 43
n 44
n 45
n 46
n 47
n 48
n 49
n 50
n 51
n 52
n 53
n 54
n 55
n 56
n 57
n 58
n 59
n 60
n 61
n 62
n 63
n 64
n 65
n 66
n 67
n 68
n 69
n 70
n 71
n 72
n 73
n 74
n 75
n 76
n 77
n 78
n 79
e 1 0
e 4 1
e 5 1
e 7 2
e 9 3
e 11 7
e 12 5
e 14 4
e 15 4
e 16 6
e 19 8
e 21 12
e 26 10
e 27 10
e 28 14
e 29 14
e 30 11
e 31 11
e 32 17
e 34 15
e 36 18
e 38 15
e 38 35
e 39 17
e 39 33
e 39 38
e 40 8
e 40 18
e 41 5
e 41 13
e 41 40
e 42 13
e 43 17
e 43 42
e 44 22
e 45 6
e 45 43
e 46 3
e 46 8
e 47 0
e 47 3
e 48 2
e 48 6
e 49 42
e 49 44
e 49 48
e 50 24
e 51 46
e 51 47
e 51 50
e 52 50
e 53 12
e 53 20
e 53 52
e 54 0
e 54 2
e 55 13
e 55 23
e 55 54
e 56 9
e 56 25
e 57 52
e 57 56
e 58 9
e 58 57
e 59 18
e 59 37
e 59 58
e 60 7
e 60 10
e 61 44
e 61 45
e 61 60
e 63 62
e 64 63
e 65 63
e 66 62
e 67 21
e 67 62
e 68 64
e 69 64
e 70 16
e 70 19
e 70 65
e 71 20
e 71 65
e 72 26
e 72 27
e 72 68
e 73 28
e 73 29
e 73 68
e 74 22
e 74 23
e 74 66
e 75 30
e 75 31
e 75 66
e 76 24
e 76 25
e 76 69
e 77 32
e 77 33
e 77 69
e 78 36
e 78 37
e 78 71
e 79 34
e 79 35
e 79 67
